; benchmark generated from python API
(set-info :status unknown)
(declare-fun cell_1_4 () Int)
(declare-fun cell_2_9 () Int)
(declare-fun cell_3_1 () Int)
(declare-fun cell_4_8 () Int)
(declare-fun cell_5_3 () Int)
(declare-fun cell_6_6 () Int)
(declare-fun cell_7_2 () Int)
(declare-fun cell_1_1 () Int)
(declare-fun cell_2_1 () Int)
(declare-fun cell_4_1 () Int)
(declare-fun cell_5_1 () Int)
(declare-fun cell_6_1 () Int)
(declare-fun cell_7_1 () Int)
(declare-fun cell_8_1 () Int)
(declare-fun cell_9_1 () Int)
(declare-fun cell_1_2 () Int)
(declare-fun cell_2_2 () Int)
(declare-fun cell_3_2 () Int)
(declare-fun cell_4_2 () Int)
(declare-fun cell_5_2 () Int)
(declare-fun cell_6_2 () Int)
(declare-fun cell_8_2 () Int)
(declare-fun cell_9_2 () Int)
(declare-fun cell_1_3 () Int)
(declare-fun cell_2_3 () Int)
(declare-fun cell_3_3 () Int)
(declare-fun cell_4_3 () Int)
(declare-fun cell_6_3 () Int)
(declare-fun cell_7_3 () Int)
(declare-fun cell_8_3 () Int)
(declare-fun cell_9_3 () Int)
(declare-fun cell_2_4 () Int)
(declare-fun cell_3_4 () Int)
(declare-fun cell_4_4 () Int)
(declare-fun cell_5_4 () Int)
(declare-fun cell_6_4 () Int)
(declare-fun cell_7_4 () Int)
(declare-fun cell_8_4 () Int)
(declare-fun cell_9_4 () Int)
(declare-fun cell_1_5 () Int)
(declare-fun cell_2_5 () Int)
(declare-fun cell_3_5 () Int)
(declare-fun cell_4_5 () Int)
(declare-fun cell_5_5 () Int)
(declare-fun cell_6_5 () Int)
(declare-fun cell_7_5 () Int)
(declare-fun cell_8_5 () Int)
(declare-fun cell_9_5 () Int)
(declare-fun cell_1_6 () Int)
(declare-fun cell_2_6 () Int)
(declare-fun cell_3_6 () Int)
(declare-fun cell_4_6 () Int)
(declare-fun cell_5_6 () Int)
(declare-fun cell_7_6 () Int)
(declare-fun cell_8_6 () Int)
(declare-fun cell_9_6 () Int)
(declare-fun cell_1_7 () Int)
(declare-fun cell_2_7 () Int)
(declare-fun cell_3_7 () Int)
(declare-fun cell_4_7 () Int)
(declare-fun cell_5_7 () Int)
(declare-fun cell_6_7 () Int)
(declare-fun cell_7_7 () Int)
(declare-fun cell_8_7 () Int)
(declare-fun cell_9_7 () Int)
(declare-fun cell_1_8 () Int)
(declare-fun cell_2_8 () Int)
(declare-fun cell_3_8 () Int)
(declare-fun cell_5_8 () Int)
(declare-fun cell_6_8 () Int)
(declare-fun cell_7_8 () Int)
(declare-fun cell_8_8 () Int)
(declare-fun cell_9_8 () Int)
(declare-fun cell_1_9 () Int)
(declare-fun cell_3_9 () Int)
(declare-fun cell_4_9 () Int)
(declare-fun cell_5_9 () Int)
(declare-fun cell_6_9 () Int)
(declare-fun cell_7_9 () Int)
(declare-fun cell_8_9 () Int)
(declare-fun cell_9_9 () Int)
(assert
 (= cell_1_4 1))
(assert
 (= cell_2_9 1))
(assert
 (= cell_3_1 1))
(assert
 (= cell_4_8 1))
(assert
 (= cell_5_3 1))
(assert
 (= cell_6_6 1))
(assert
 (= cell_7_2 1))
(assert
 (let (($x2660 (= cell_1_1 9)))
 (let (($x8640 (= cell_1_1 8)))
 (let (($x1154 (= cell_1_1 7)))
 (let (($x9624 (= cell_1_1 6)))
 (let (($x5017 (= cell_1_1 5)))
 (let (($x5199 (= cell_1_1 4)))
 (let (($x5048 (= cell_1_1 3)))
 (let (($x4112 (= cell_1_1 2)))
 (let (($x2573 (= cell_1_1 1)))
 (or $x2573 $x4112 $x5048 $x5199 $x5017 $x9624 $x1154 $x8640 $x2660)))))))))))
(assert
 (let (($x7957 (= cell_2_1 9)))
 (let (($x8607 (= cell_2_1 8)))
 (let (($x352 (= cell_2_1 7)))
 (let (($x1781 (= cell_2_1 6)))
 (let (($x2650 (= cell_2_1 5)))
 (let (($x6166 (= cell_2_1 4)))
 (let (($x4412 (= cell_2_1 3)))
 (let (($x3379 (= cell_2_1 2)))
 (let (($x9466 (= cell_2_1 1)))
 (or $x9466 $x3379 $x4412 $x6166 $x2650 $x1781 $x352 $x8607 $x7957)))))))))))
(assert
 (let (($x8990 (= cell_3_1 1)))
 (or $x8990 (= cell_3_1 2) (= cell_3_1 3) (= cell_3_1 4) (= cell_3_1 5) (= cell_3_1 6) (= cell_3_1 7) (= cell_3_1 8) (= cell_3_1 9))))
(assert
 (let (($x316 (= cell_4_1 9)))
 (let (($x5256 (= cell_4_1 8)))
 (let (($x4428 (= cell_4_1 7)))
 (let (($x5532 (= cell_4_1 6)))
 (let (($x2069 (= cell_4_1 5)))
 (let (($x6737 (= cell_4_1 4)))
 (let (($x10034 (= cell_4_1 3)))
 (let (($x4762 (= cell_4_1 2)))
 (let (($x4922 (= cell_4_1 1)))
 (or $x4922 $x4762 $x10034 $x6737 $x2069 $x5532 $x4428 $x5256 $x316)))))))))))
(assert
 (let (($x4110 (= cell_5_1 9)))
 (let (($x2258 (= cell_5_1 8)))
 (let (($x9142 (= cell_5_1 7)))
 (let (($x6344 (= cell_5_1 6)))
 (let (($x5283 (= cell_5_1 5)))
 (let (($x5169 (= cell_5_1 4)))
 (let (($x6531 (= cell_5_1 3)))
 (let (($x2647 (= cell_5_1 2)))
 (let (($x3245 (= cell_5_1 1)))
 (or $x3245 $x2647 $x6531 $x5169 $x5283 $x6344 $x9142 $x2258 $x4110)))))))))))
(assert
 (let (($x9272 (= cell_6_1 9)))
 (let (($x4421 (= cell_6_1 8)))
 (let (($x3386 (= cell_6_1 7)))
 (let (($x1137 (= cell_6_1 6)))
 (let (($x806 (= cell_6_1 5)))
 (let (($x9061 (= cell_6_1 4)))
 (let (($x9483 (= cell_6_1 3)))
 (let (($x2848 (= cell_6_1 2)))
 (let (($x4275 (= cell_6_1 1)))
 (or $x4275 $x2848 $x9483 $x9061 $x806 $x1137 $x3386 $x4421 $x9272)))))))))))
(assert
 (let (($x5747 (= cell_7_1 9)))
 (let (($x4483 (= cell_7_1 8)))
 (let (($x2673 (= cell_7_1 7)))
 (let (($x9736 (= cell_7_1 6)))
 (let (($x7914 (= cell_7_1 5)))
 (let (($x1270 (= cell_7_1 4)))
 (let (($x614 (= cell_7_1 3)))
 (let (($x9100 (= cell_7_1 2)))
 (let (($x3526 (= cell_7_1 1)))
 (or $x3526 $x9100 $x614 $x1270 $x7914 $x9736 $x2673 $x4483 $x5747)))))))))))
(assert
 (let (($x9317 (= cell_8_1 1)))
 (or $x9317 (= cell_8_1 2) (= cell_8_1 3) (= cell_8_1 4) (= cell_8_1 5) (= cell_8_1 6) (= cell_8_1 7) (= cell_8_1 8) (= cell_8_1 9))))
(assert
 (let (($x5571 (= cell_9_1 1)))
 (or $x5571 (= cell_9_1 2) (= cell_9_1 3) (= cell_9_1 4) (= cell_9_1 5) (= cell_9_1 6) (= cell_9_1 7) (= cell_9_1 8) (= cell_9_1 9))))
(assert
 (let (($x4414 (= cell_1_2 9)))
 (let (($x1837 (= cell_1_2 8)))
 (let (($x5250 (= cell_1_2 7)))
 (let (($x417 (= cell_1_2 6)))
 (let (($x218 (= cell_1_2 5)))
 (let (($x747 (= cell_1_2 4)))
 (let (($x2866 (= cell_1_2 3)))
 (let (($x3454 (= cell_1_2 2)))
 (let (($x3371 (= cell_1_2 1)))
 (or $x3371 $x3454 $x2866 $x747 $x218 $x417 $x5250 $x1837 $x4414)))))))))))
(assert
 (let (($x9516 (= cell_2_2 9)))
 (let (($x1562 (= cell_2_2 8)))
 (let (($x1250 (= cell_2_2 7)))
 (let (($x5341 (= cell_2_2 6)))
 (let (($x4076 (= cell_2_2 5)))
 (let (($x3078 (= cell_2_2 4)))
 (let (($x5967 (= cell_2_2 3)))
 (let (($x6619 (= cell_2_2 2)))
 (let (($x928 (= cell_2_2 1)))
 (or $x928 $x6619 $x5967 $x3078 $x4076 $x5341 $x1250 $x1562 $x9516)))))))))))
(assert
 (let (($x3231 (= cell_3_2 9)))
 (let (($x34 (= cell_3_2 8)))
 (let (($x4000 (= cell_3_2 7)))
 (let (($x6726 (= cell_3_2 6)))
 (let (($x4874 (= cell_3_2 5)))
 (let (($x9147 (= cell_3_2 4)))
 (let (($x3934 (= cell_3_2 3)))
 (let (($x6607 (= cell_3_2 2)))
 (let (($x7399 (= cell_3_2 1)))
 (or $x7399 $x6607 $x3934 $x9147 $x4874 $x6726 $x4000 $x34 $x3231)))))))))))
(assert
 (let (($x6509 (= cell_4_2 9)))
 (let (($x7130 (= cell_4_2 8)))
 (let (($x2226 (= cell_4_2 7)))
 (let (($x7056 (= cell_4_2 6)))
 (let (($x1550 (= cell_4_2 5)))
 (let (($x399 (= cell_4_2 4)))
 (let (($x3058 (= cell_4_2 3)))
 (let (($x8271 (= cell_4_2 2)))
 (let (($x1323 (= cell_4_2 1)))
 (or $x1323 $x8271 $x3058 $x399 $x1550 $x7056 $x2226 $x7130 $x6509)))))))))))
(assert
 (let (($x2260 (= cell_5_2 9)))
 (let (($x956 (= cell_5_2 8)))
 (let (($x3138 (= cell_5_2 7)))
 (let (($x5513 (= cell_5_2 6)))
 (let (($x570 (= cell_5_2 5)))
 (let (($x1587 (= cell_5_2 4)))
 (let (($x6068 (= cell_5_2 3)))
 (let (($x801 (= cell_5_2 2)))
 (let (($x1234 (= cell_5_2 1)))
 (or $x1234 $x801 $x6068 $x1587 $x570 $x5513 $x3138 $x956 $x2260)))))))))))
(assert
 (let (($x1134 (= cell_6_2 9)))
 (let (($x1252 (= cell_6_2 8)))
 (let (($x529 (= cell_6_2 7)))
 (let (($x7026 (= cell_6_2 6)))
 (let (($x10131 (= cell_6_2 5)))
 (let (($x4249 (= cell_6_2 4)))
 (let (($x3059 (= cell_6_2 3)))
 (let (($x2661 (= cell_6_2 2)))
 (let (($x831 (= cell_6_2 1)))
 (or $x831 $x2661 $x3059 $x4249 $x10131 $x7026 $x529 $x1252 $x1134)))))))))))
(assert
 (let (($x9958 (= cell_7_2 1)))
 (or $x9958 (= cell_7_2 2) (= cell_7_2 3) (= cell_7_2 4) (= cell_7_2 5) (= cell_7_2 6) (= cell_7_2 7) (= cell_7_2 8) (= cell_7_2 9))))
(assert
 (let (($x7153 (= cell_8_2 1)))
 (or $x7153 (= cell_8_2 2) (= cell_8_2 3) (= cell_8_2 4) (= cell_8_2 5) (= cell_8_2 6) (= cell_8_2 7) (= cell_8_2 8) (= cell_8_2 9))))
(assert
 (let (($x4552 (= cell_9_2 1)))
 (or $x4552 (= cell_9_2 2) (= cell_9_2 3) (= cell_9_2 4) (= cell_9_2 5) (= cell_9_2 6) (= cell_9_2 7) (= cell_9_2 8) (= cell_9_2 9))))
(assert
 (let (($x3761 (= cell_1_3 9)))
 (let (($x3027 (= cell_1_3 8)))
 (let (($x6598 (= cell_1_3 7)))
 (let (($x9372 (= cell_1_3 6)))
 (let (($x9204 (= cell_1_3 5)))
 (let (($x6735 (= cell_1_3 4)))
 (let (($x4372 (= cell_1_3 3)))
 (let (($x3282 (= cell_1_3 2)))
 (let (($x7258 (= cell_1_3 1)))
 (or $x7258 $x3282 $x4372 $x6735 $x9204 $x9372 $x6598 $x3027 $x3761)))))))))))
(assert
 (let (($x8913 (= cell_2_3 9)))
 (let (($x3513 (= cell_2_3 8)))
 (let (($x5779 (= cell_2_3 7)))
 (let (($x9353 (= cell_2_3 6)))
 (let (($x2232 (= cell_2_3 5)))
 (let (($x5383 (= cell_2_3 4)))
 (let (($x8879 (= cell_2_3 3)))
 (let (($x2944 (= cell_2_3 2)))
 (let (($x881 (= cell_2_3 1)))
 (or $x881 $x2944 $x8879 $x5383 $x2232 $x9353 $x5779 $x3513 $x8913)))))))))))
(assert
 (let (($x1396 (= cell_3_3 9)))
 (let (($x3602 (= cell_3_3 8)))
 (let (($x3213 (= cell_3_3 7)))
 (let (($x2696 (= cell_3_3 6)))
 (let (($x3308 (= cell_3_3 5)))
 (let (($x9619 (= cell_3_3 4)))
 (let (($x1608 (= cell_3_3 3)))
 (let (($x6963 (= cell_3_3 2)))
 (let (($x6278 (= cell_3_3 1)))
 (or $x6278 $x6963 $x1608 $x9619 $x3308 $x2696 $x3213 $x3602 $x1396)))))))))))
(assert
 (let (($x2676 (= cell_4_3 9)))
 (let (($x5467 (= cell_4_3 8)))
 (let (($x5005 (= cell_4_3 7)))
 (let (($x5441 (= cell_4_3 6)))
 (let (($x2933 (= cell_4_3 5)))
 (let (($x4016 (= cell_4_3 4)))
 (let (($x3073 (= cell_4_3 3)))
 (let (($x7668 (= cell_4_3 2)))
 (let (($x4912 (= cell_4_3 1)))
 (or $x4912 $x7668 $x3073 $x4016 $x2933 $x5441 $x5005 $x5467 $x2676)))))))))))
(assert
 (let (($x9050 (= cell_5_3 1)))
 (or $x9050 (= cell_5_3 2) (= cell_5_3 3) (= cell_5_3 4) (= cell_5_3 5) (= cell_5_3 6) (= cell_5_3 7) (= cell_5_3 8) (= cell_5_3 9))))
(assert
 (let (($x1368 (= cell_6_3 9)))
 (let (($x4179 (= cell_6_3 8)))
 (let (($x2504 (= cell_6_3 7)))
 (let (($x6668 (= cell_6_3 6)))
 (let (($x6645 (= cell_6_3 5)))
 (let (($x304 (= cell_6_3 4)))
 (let (($x8117 (= cell_6_3 3)))
 (let (($x9023 (= cell_6_3 2)))
 (let (($x9171 (= cell_6_3 1)))
 (or $x9171 $x9023 $x8117 $x304 $x6645 $x6668 $x2504 $x4179 $x1368)))))))))))
(assert
 (let (($x6913 (= cell_7_3 1)))
 (or $x6913 (= cell_7_3 2) (= cell_7_3 3) (= cell_7_3 4) (= cell_7_3 5) (= cell_7_3 6) (= cell_7_3 7) (= cell_7_3 8) (= cell_7_3 9))))
(assert
 (let (($x6242 (= cell_8_3 1)))
 (or $x6242 (= cell_8_3 2) (= cell_8_3 3) (= cell_8_3 4) (= cell_8_3 5) (= cell_8_3 6) (= cell_8_3 7) (= cell_8_3 8) (= cell_8_3 9))))
(assert
 (let (($x7725 (= cell_9_3 1)))
 (or $x7725 (= cell_9_3 2) (= cell_9_3 3) (= cell_9_3 4) (= cell_9_3 5) (= cell_9_3 6) (= cell_9_3 7) (= cell_9_3 8) (= cell_9_3 9))))
(assert
 (let (($x1618 (= cell_1_4 1)))
 (or $x1618 (= cell_1_4 2) (= cell_1_4 3) (= cell_1_4 4) (= cell_1_4 5) (= cell_1_4 6) (= cell_1_4 7) (= cell_1_4 8) (= cell_1_4 9))))
(assert
 (let (($x6917 (= cell_2_4 9)))
 (let (($x2280 (= cell_2_4 8)))
 (let (($x4309 (= cell_2_4 7)))
 (let (($x4376 (= cell_2_4 6)))
 (let (($x9537 (= cell_2_4 5)))
 (let (($x383 (= cell_2_4 4)))
 (let (($x5944 (= cell_2_4 3)))
 (let (($x6312 (= cell_2_4 2)))
 (let (($x9038 (= cell_2_4 1)))
 (or $x9038 $x6312 $x5944 $x383 $x9537 $x4376 $x4309 $x2280 $x6917)))))))))))
(assert
 (let (($x4979 (= cell_3_4 1)))
 (or $x4979 (= cell_3_4 2) (= cell_3_4 3) (= cell_3_4 4) (= cell_3_4 5) (= cell_3_4 6) (= cell_3_4 7) (= cell_3_4 8) (= cell_3_4 9))))
(assert
 (let (($x5160 (= cell_4_4 9)))
 (let (($x5094 (= cell_4_4 8)))
 (let (($x7127 (= cell_4_4 7)))
 (let (($x3396 (= cell_4_4 6)))
 (let (($x257 (= cell_4_4 5)))
 (let (($x9424 (= cell_4_4 4)))
 (let (($x2155 (= cell_4_4 3)))
 (let (($x6397 (= cell_4_4 2)))
 (let (($x9190 (= cell_4_4 1)))
 (or $x9190 $x6397 $x2155 $x9424 $x257 $x3396 $x7127 $x5094 $x5160)))))))))))
(assert
 (let (($x7452 (= cell_5_4 9)))
 (let (($x5606 (= cell_5_4 8)))
 (let (($x8460 (= cell_5_4 7)))
 (let (($x184 (= cell_5_4 6)))
 (let (($x683 (= cell_5_4 5)))
 (let (($x8334 (= cell_5_4 4)))
 (let (($x3958 (= cell_5_4 3)))
 (let (($x8505 (= cell_5_4 2)))
 (let (($x601 (= cell_5_4 1)))
 (or $x601 $x8505 $x3958 $x8334 $x683 $x184 $x8460 $x5606 $x7452)))))))))))
(assert
 (let (($x5998 (= cell_6_4 9)))
 (let (($x5855 (= cell_6_4 8)))
 (let (($x9391 (= cell_6_4 7)))
 (let (($x4965 (= cell_6_4 6)))
 (let (($x1638 (= cell_6_4 5)))
 (let (($x4611 (= cell_6_4 4)))
 (let (($x7378 (= cell_6_4 3)))
 (let (($x3026 (= cell_6_4 2)))
 (let (($x7218 (= cell_6_4 1)))
 (or $x7218 $x3026 $x7378 $x4611 $x1638 $x4965 $x9391 $x5855 $x5998)))))))))))
(assert
 (let (($x2651 (= cell_7_4 1)))
 (or $x2651 (= cell_7_4 2) (= cell_7_4 3) (= cell_7_4 4) (= cell_7_4 5) (= cell_7_4 6) (= cell_7_4 7) (= cell_7_4 8) (= cell_7_4 9))))
(assert
 (let (($x3034 (= cell_8_4 1)))
 (or $x3034 (= cell_8_4 2) (= cell_8_4 3) (= cell_8_4 4) (= cell_8_4 5) (= cell_8_4 6) (= cell_8_4 7) (= cell_8_4 8) (= cell_8_4 9))))
(assert
 (let (($x3700 (= cell_9_4 1)))
 (or $x3700 (= cell_9_4 2) (= cell_9_4 3) (= cell_9_4 4) (= cell_9_4 5) (= cell_9_4 6) (= cell_9_4 7) (= cell_9_4 8) (= cell_9_4 9))))
(assert
 (let (($x6851 (= cell_1_5 9)))
 (let (($x3819 (= cell_1_5 8)))
 (let (($x990 (= cell_1_5 7)))
 (let (($x3748 (= cell_1_5 6)))
 (let (($x7739 (= cell_1_5 5)))
 (let (($x9972 (= cell_1_5 4)))
 (let (($x552 (= cell_1_5 3)))
 (let (($x8210 (= cell_1_5 2)))
 (let (($x5739 (= cell_1_5 1)))
 (or $x5739 $x8210 $x552 $x9972 $x7739 $x3748 $x990 $x3819 $x6851)))))))))))
(assert
 (let (($x3792 (= cell_2_5 9)))
 (let (($x609 (= cell_2_5 8)))
 (let (($x9555 (= cell_2_5 7)))
 (let (($x5698 (= cell_2_5 6)))
 (let (($x2009 (= cell_2_5 5)))
 (let (($x5663 (= cell_2_5 4)))
 (let (($x1519 (= cell_2_5 3)))
 (let (($x8093 (= cell_2_5 2)))
 (let (($x5289 (= cell_2_5 1)))
 (or $x5289 $x8093 $x1519 $x5663 $x2009 $x5698 $x9555 $x609 $x3792)))))))))))
(assert
 (let (($x771 (= cell_3_5 1)))
 (or $x771 (= cell_3_5 2) (= cell_3_5 3) (= cell_3_5 4) (= cell_3_5 5) (= cell_3_5 6) (= cell_3_5 7) (= cell_3_5 8) (= cell_3_5 9))))
(assert
 (let (($x9706 (= cell_4_5 9)))
 (let (($x7792 (= cell_4_5 8)))
 (let (($x8328 (= cell_4_5 7)))
 (let (($x6129 (= cell_4_5 6)))
 (let (($x3533 (= cell_4_5 5)))
 (let (($x8260 (= cell_4_5 4)))
 (let (($x9254 (= cell_4_5 3)))
 (let (($x9486 (= cell_4_5 2)))
 (let (($x3218 (= cell_4_5 1)))
 (or $x3218 $x9486 $x9254 $x8260 $x3533 $x6129 $x8328 $x7792 $x9706)))))))))))
(assert
 (let (($x1733 (= cell_5_5 9)))
 (let (($x7887 (= cell_5_5 8)))
 (let (($x921 (= cell_5_5 7)))
 (let (($x9683 (= cell_5_5 6)))
 (let (($x732 (= cell_5_5 5)))
 (let (($x2473 (= cell_5_5 4)))
 (let (($x1566 (= cell_5_5 3)))
 (let (($x8914 (= cell_5_5 2)))
 (let (($x5480 (= cell_5_5 1)))
 (or $x5480 $x8914 $x1566 $x2473 $x732 $x9683 $x921 $x7887 $x1733)))))))))))
(assert
 (let (($x4518 (= cell_6_5 9)))
 (let (($x1312 (= cell_6_5 8)))
 (let (($x1451 (= cell_6_5 7)))
 (let (($x1099 (= cell_6_5 6)))
 (let (($x2579 (= cell_6_5 5)))
 (let (($x3020 (= cell_6_5 4)))
 (let (($x3954 (= cell_6_5 3)))
 (let (($x9522 (= cell_6_5 2)))
 (let (($x2094 (= cell_6_5 1)))
 (or $x2094 $x9522 $x3954 $x3020 $x2579 $x1099 $x1451 $x1312 $x4518)))))))))))
(assert
 (let (($x7715 (= cell_7_5 1)))
 (or $x7715 (= cell_7_5 2) (= cell_7_5 3) (= cell_7_5 4) (= cell_7_5 5) (= cell_7_5 6) (= cell_7_5 7) (= cell_7_5 8) (= cell_7_5 9))))
(assert
 (or (= cell_8_5 1) (= cell_8_5 2) (= cell_8_5 3) (= cell_8_5 4) (= cell_8_5 5) (= cell_8_5 6) (= cell_8_5 7) (= cell_8_5 8) (= cell_8_5 9)))
(assert
 (or (= cell_9_5 1) (= cell_9_5 2) (= cell_9_5 3) (= cell_9_5 4) (= cell_9_5 5) (= cell_9_5 6) (= cell_9_5 7) (= cell_9_5 8) (= cell_9_5 9)))
(assert
 (let (($x9343 (= cell_1_6 9)))
 (let (($x9801 (= cell_1_6 8)))
 (let (($x9518 (= cell_1_6 7)))
 (let (($x1061 (= cell_1_6 6)))
 (let (($x8313 (= cell_1_6 5)))
 (let (($x2103 (= cell_1_6 4)))
 (let (($x8598 (= cell_1_6 3)))
 (let (($x4381 (= cell_1_6 2)))
 (let (($x1527 (= cell_1_6 1)))
 (or $x1527 $x4381 $x8598 $x2103 $x8313 $x1061 $x9518 $x9801 $x9343)))))))))))
(assert
 (let (($x3198 (= cell_2_6 9)))
 (let (($x9716 (= cell_2_6 8)))
 (let (($x9528 (= cell_2_6 7)))
 (let (($x9150 (= cell_2_6 6)))
 (let (($x936 (= cell_2_6 5)))
 (let (($x1673 (= cell_2_6 4)))
 (let (($x3415 (= cell_2_6 3)))
 (let (($x3627 (= cell_2_6 2)))
 (let (($x7560 (= cell_2_6 1)))
 (or $x7560 $x3627 $x3415 $x1673 $x936 $x9150 $x9528 $x9716 $x3198)))))))))))
(assert
 (let (($x8390 (= cell_3_6 9)))
 (let (($x729 (= cell_3_6 8)))
 (let (($x10147 (= cell_3_6 7)))
 (let (($x6691 (= cell_3_6 6)))
 (let (($x3697 (= cell_3_6 5)))
 (let (($x5008 (= cell_3_6 4)))
 (let (($x6467 (= cell_3_6 3)))
 (let (($x3827 (= cell_3_6 2)))
 (let (($x3318 (= cell_3_6 1)))
 (or $x3318 $x3827 $x6467 $x5008 $x3697 $x6691 $x10147 $x729 $x8390)))))))))))
(assert
 (let (($x782 (= cell_4_6 9)))
 (let (($x8420 (= cell_4_6 8)))
 (let (($x1157 (= cell_4_6 7)))
 (let (($x6400 (= cell_4_6 6)))
 (let (($x1093 (= cell_4_6 5)))
 (let (($x4100 (= cell_4_6 4)))
 (let (($x2971 (= cell_4_6 3)))
 (let (($x620 (= cell_4_6 2)))
 (let (($x4619 (= cell_4_6 1)))
 (or $x4619 $x620 $x2971 $x4100 $x1093 $x6400 $x1157 $x8420 $x782)))))))))))
(assert
 (let (($x7869 (= cell_5_6 9)))
 (let (($x3691 (= cell_5_6 8)))
 (let (($x4764 (= cell_5_6 7)))
 (let (($x9095 (= cell_5_6 6)))
 (let (($x5261 (= cell_5_6 5)))
 (let (($x4002 (= cell_5_6 4)))
 (let (($x1559 (= cell_5_6 3)))
 (let (($x3938 (= cell_5_6 2)))
 (let (($x3608 (= cell_5_6 1)))
 (or $x3608 $x3938 $x1559 $x4002 $x5261 $x9095 $x4764 $x3691 $x7869)))))))))))
(assert
 (let (($x2039 (= cell_6_6 1)))
 (or $x2039 (= cell_6_6 2) (= cell_6_6 3) (= cell_6_6 4) (= cell_6_6 5) (= cell_6_6 6) (= cell_6_6 7) (= cell_6_6 8) (= cell_6_6 9))))
(assert
 (let (($x8452 (= cell_7_6 1)))
 (or $x8452 (= cell_7_6 2) (= cell_7_6 3) (= cell_7_6 4) (= cell_7_6 5) (= cell_7_6 6) (= cell_7_6 7) (= cell_7_6 8) (= cell_7_6 9))))
(assert
 (let (($x6835 (= cell_8_6 1)))
 (or $x6835 (= cell_8_6 2) (= cell_8_6 3) (= cell_8_6 4) (= cell_8_6 5) (= cell_8_6 6) (= cell_8_6 7) (= cell_8_6 8) (= cell_8_6 9))))
(assert
 (let (($x2140 (= cell_9_6 1)))
 (or $x2140 (= cell_9_6 2) (= cell_9_6 3) (= cell_9_6 4) (= cell_9_6 5) (= cell_9_6 6) (= cell_9_6 7) (= cell_9_6 8) (= cell_9_6 9))))
(assert
 (let (($x5770 (= cell_1_7 9)))
 (let (($x3679 (= cell_1_7 8)))
 (let (($x1382 (= cell_1_7 7)))
 (let (($x4933 (= cell_1_7 6)))
 (let (($x6793 (= cell_1_7 5)))
 (let (($x834 (= cell_1_7 4)))
 (let (($x230 (= cell_1_7 3)))
 (let (($x3980 (= cell_1_7 2)))
 (let (($x7607 (= cell_1_7 1)))
 (or $x7607 $x3980 $x230 $x834 $x6793 $x4933 $x1382 $x3679 $x5770)))))))))))
(assert
 (let (($x176 (= cell_2_7 9)))
 (let (($x1416 (= cell_2_7 8)))
 (let (($x6799 (= cell_2_7 7)))
 (let (($x5297 (= cell_2_7 6)))
 (let (($x1505 (= cell_2_7 5)))
 (let (($x8949 (= cell_2_7 4)))
 (let (($x8529 (= cell_2_7 3)))
 (let (($x511 (= cell_2_7 2)))
 (let (($x9476 (= cell_2_7 1)))
 (or $x9476 $x511 $x8529 $x8949 $x1505 $x5297 $x6799 $x1416 $x176)))))))))))
(assert
 (let (($x6105 (= cell_3_7 9)))
 (let (($x10022 (= cell_3_7 8)))
 (let (($x1936 (= cell_3_7 7)))
 (let (($x3030 (= cell_3_7 6)))
 (let (($x7387 (= cell_3_7 5)))
 (let (($x8101 (= cell_3_7 4)))
 (let (($x585 (= cell_3_7 3)))
 (let (($x8023 (= cell_3_7 2)))
 (let (($x9199 (= cell_3_7 1)))
 (or $x9199 $x8023 $x585 $x8101 $x7387 $x3030 $x1936 $x10022 $x6105)))))))))))
(assert
 (let (($x7510 (= cell_4_7 9)))
 (let (($x6649 (= cell_4_7 8)))
 (let (($x3646 (= cell_4_7 7)))
 (let (($x8531 (= cell_4_7 6)))
 (let (($x7655 (= cell_4_7 5)))
 (let (($x3285 (= cell_4_7 4)))
 (let (($x8560 (= cell_4_7 3)))
 (let (($x3825 (= cell_4_7 2)))
 (let (($x3430 (= cell_4_7 1)))
 (or $x3430 $x3825 $x8560 $x3285 $x7655 $x8531 $x3646 $x6649 $x7510)))))))))))
(assert
 (let (($x4198 (= cell_5_7 1)))
 (or $x4198 (= cell_5_7 2) (= cell_5_7 3) (= cell_5_7 4) (= cell_5_7 5) (= cell_5_7 6) (= cell_5_7 7) (= cell_5_7 8) (= cell_5_7 9))))
(assert
 (let (($x6632 (= cell_6_7 1)))
 (or $x6632 (= cell_6_7 2) (= cell_6_7 3) (= cell_6_7 4) (= cell_6_7 5) (= cell_6_7 6) (= cell_6_7 7) (= cell_6_7 8) (= cell_6_7 9))))
(assert
 (let (($x7254 (= cell_7_7 1)))
 (or $x7254 (= cell_7_7 2) (= cell_7_7 3) (= cell_7_7 4) (= cell_7_7 5) (= cell_7_7 6) (= cell_7_7 7) (= cell_7_7 8) (= cell_7_7 9))))
(assert
 (let (($x7084 (= cell_8_7 1)))
 (or $x7084 (= cell_8_7 2) (= cell_8_7 3) (= cell_8_7 4) (= cell_8_7 5) (= cell_8_7 6) (= cell_8_7 7) (= cell_8_7 8) (= cell_8_7 9))))
(assert
 (or (= cell_9_7 1) (= cell_9_7 2) (= cell_9_7 3) (= cell_9_7 4) (= cell_9_7 5) (= cell_9_7 6) (= cell_9_7 7) (= cell_9_7 8) (= cell_9_7 9)))
(assert
 (let (($x9562 (= cell_1_8 9)))
 (let (($x4064 (= cell_1_8 8)))
 (let (($x3711 (= cell_1_8 7)))
 (let (($x9612 (= cell_1_8 6)))
 (let (($x795 (= cell_1_8 5)))
 (let (($x1870 (= cell_1_8 4)))
 (let (($x1029 (= cell_1_8 3)))
 (let (($x4034 (= cell_1_8 2)))
 (let (($x2340 (= cell_1_8 1)))
 (or $x2340 $x4034 $x1029 $x1870 $x795 $x9612 $x3711 $x4064 $x9562)))))))))))
(assert
 (let (($x486 (= cell_2_8 9)))
 (let (($x7173 (= cell_2_8 8)))
 (let (($x9585 (= cell_2_8 7)))
 (let (($x4774 (= cell_2_8 6)))
 (let (($x4067 (= cell_2_8 5)))
 (let (($x1474 (= cell_2_8 4)))
 (let (($x887 (= cell_2_8 3)))
 (let (($x6102 (= cell_2_8 2)))
 (let (($x4065 (= cell_2_8 1)))
 (or $x4065 $x6102 $x887 $x1474 $x4067 $x4774 $x9585 $x7173 $x486)))))))))))
(assert
 (let (($x8028 (= cell_3_8 9)))
 (let (($x9895 (= cell_3_8 8)))
 (let (($x2710 (= cell_3_8 7)))
 (let (($x3187 (= cell_3_8 6)))
 (let (($x2093 (= cell_3_8 5)))
 (let (($x9841 (= cell_3_8 4)))
 (let (($x4447 (= cell_3_8 3)))
 (let (($x7864 (= cell_3_8 2)))
 (let (($x6048 (= cell_3_8 1)))
 (or $x6048 $x7864 $x4447 $x9841 $x2093 $x3187 $x2710 $x9895 $x8028)))))))))))
(assert
 (let (($x5440 (= cell_4_8 1)))
 (or $x5440 (= cell_4_8 2) (= cell_4_8 3) (= cell_4_8 4) (= cell_4_8 5) (= cell_4_8 6) (= cell_4_8 7) (= cell_4_8 8) (= cell_4_8 9))))
(assert
 (let (($x3750 (= cell_5_8 1)))
 (or $x3750 (= cell_5_8 2) (= cell_5_8 3) (= cell_5_8 4) (= cell_5_8 5) (= cell_5_8 6) (= cell_5_8 7) (= cell_5_8 8) (= cell_5_8 9))))
(assert
 (let (($x1479 (= cell_6_8 1)))
 (or $x1479 (= cell_6_8 2) (= cell_6_8 3) (= cell_6_8 4) (= cell_6_8 5) (= cell_6_8 6) (= cell_6_8 7) (= cell_6_8 8) (= cell_6_8 9))))
(assert
 (let (($x4709 (= cell_7_8 1)))
 (or $x4709 (= cell_7_8 2) (= cell_7_8 3) (= cell_7_8 4) (= cell_7_8 5) (= cell_7_8 6) (= cell_7_8 7) (= cell_7_8 8) (= cell_7_8 9))))
(assert
 (let (($x6576 (= cell_8_8 1)))
 (or $x6576 (= cell_8_8 2) (= cell_8_8 3) (= cell_8_8 4) (= cell_8_8 5) (= cell_8_8 6) (= cell_8_8 7) (= cell_8_8 8) (= cell_8_8 9))))
(assert
 (let (($x959 (= cell_9_8 1)))
 (or $x959 (= cell_9_8 2) (= cell_9_8 3) (= cell_9_8 4) (= cell_9_8 5) (= cell_9_8 6) (= cell_9_8 7) (= cell_9_8 8) (= cell_9_8 9))))
(assert
 (let (($x4653 (= cell_1_9 9)))
 (let (($x3818 (= cell_1_9 8)))
 (let (($x3906 (= cell_1_9 7)))
 (let (($x9560 (= cell_1_9 6)))
 (let (($x7498 (= cell_1_9 5)))
 (let (($x342 (= cell_1_9 4)))
 (let (($x6486 (= cell_1_9 3)))
 (let (($x8575 (= cell_1_9 2)))
 (let (($x2843 (= cell_1_9 1)))
 (or $x2843 $x8575 $x6486 $x342 $x7498 $x9560 $x3906 $x3818 $x4653)))))))))))
(assert
 (let (($x9942 (= cell_2_9 1)))
 (or $x9942 (= cell_2_9 2) (= cell_2_9 3) (= cell_2_9 4) (= cell_2_9 5) (= cell_2_9 6) (= cell_2_9 7) (= cell_2_9 8) (= cell_2_9 9))))
(assert
 (let (($x3327 (= cell_3_9 1)))
 (or $x3327 (= cell_3_9 2) (= cell_3_9 3) (= cell_3_9 4) (= cell_3_9 5) (= cell_3_9 6) (= cell_3_9 7) (= cell_3_9 8) (= cell_3_9 9))))
(assert
 (let (($x10038 (= cell_4_9 1)))
 (or $x10038 (= cell_4_9 2) (= cell_4_9 3) (= cell_4_9 4) (= cell_4_9 5) (= cell_4_9 6) (= cell_4_9 7) (= cell_4_9 8) (= cell_4_9 9))))
(assert
 (let (($x6806 (= cell_5_9 1)))
 (or $x6806 (= cell_5_9 2) (= cell_5_9 3) (= cell_5_9 4) (= cell_5_9 5) (= cell_5_9 6) (= cell_5_9 7) (= cell_5_9 8) (= cell_5_9 9))))
(assert
 (let (($x8208 (= cell_6_9 1)))
 (or $x8208 (= cell_6_9 2) (= cell_6_9 3) (= cell_6_9 4) (= cell_6_9 5) (= cell_6_9 6) (= cell_6_9 7) (= cell_6_9 8) (= cell_6_9 9))))
(assert
 (let (($x2586 (= cell_7_9 1)))
 (or $x2586 (= cell_7_9 2) (= cell_7_9 3) (= cell_7_9 4) (= cell_7_9 5) (= cell_7_9 6) (= cell_7_9 7) (= cell_7_9 8) (= cell_7_9 9))))
(assert
 (let (($x1772 (= cell_8_9 1)))
 (or $x1772 (= cell_8_9 2) (= cell_8_9 3) (= cell_8_9 4) (= cell_8_9 5) (= cell_8_9 6) (= cell_8_9 7) (= cell_8_9 8) (= cell_8_9 9))))
(assert
 (let (($x6221 (= cell_9_9 1)))
 (or $x6221 (= cell_9_9 2) (= cell_9_9 3) (= cell_9_9 4) (= cell_9_9 5) (= cell_9_9 6) (= cell_9_9 7) (= cell_9_9 8) (= cell_9_9 9))))
(assert
 (and (distinct cell_1_1 cell_1_2 cell_1_3 cell_1_4 cell_1_5 cell_1_6 cell_1_7 cell_1_8 cell_1_9) true))
(assert
 (and (distinct cell_2_1 cell_2_2 cell_2_3 cell_2_4 cell_2_5 cell_2_6 cell_2_7 cell_2_8 cell_2_9) true))
(assert
 (and (distinct cell_3_1 cell_3_2 cell_3_3 cell_3_4 cell_3_5 cell_3_6 cell_3_7 cell_3_8 cell_3_9) true))
(assert
 (and (distinct cell_4_1 cell_4_2 cell_4_3 cell_4_4 cell_4_5 cell_4_6 cell_4_7 cell_4_8 cell_4_9) true))
(assert
 (and (distinct cell_5_1 cell_5_2 cell_5_3 cell_5_4 cell_5_5 cell_5_6 cell_5_7 cell_5_8 cell_5_9) true))
(assert
 (and (distinct cell_6_1 cell_6_2 cell_6_3 cell_6_4 cell_6_5 cell_6_6 cell_6_7 cell_6_8 cell_6_9) true))
(assert
 (and (distinct cell_7_1 cell_7_2 cell_7_3 cell_7_4 cell_7_5 cell_7_6 cell_7_7 cell_7_8 cell_7_9) true))
(assert
 (and (distinct cell_8_1 cell_8_2 cell_8_3 cell_8_4 cell_8_5 cell_8_6 cell_8_7 cell_8_8 cell_8_9) true))
(assert
 (and (distinct cell_9_1 cell_9_2 cell_9_3 cell_9_4 cell_9_5 cell_9_6 cell_9_7 cell_9_8 cell_9_9) true))
(assert
 (and (distinct cell_1_1 cell_2_1 cell_3_1 cell_4_1 cell_5_1 cell_6_1 cell_7_1 cell_8_1 cell_9_1) true))
(assert
 (and (distinct cell_1_2 cell_2_2 cell_3_2 cell_4_2 cell_5_2 cell_6_2 cell_7_2 cell_8_2 cell_9_2) true))
(assert
 (and (distinct cell_1_3 cell_2_3 cell_3_3 cell_4_3 cell_5_3 cell_6_3 cell_7_3 cell_8_3 cell_9_3) true))
(assert
 (and (distinct cell_1_4 cell_2_4 cell_3_4 cell_4_4 cell_5_4 cell_6_4 cell_7_4 cell_8_4 cell_9_4) true))
(assert
 (and (distinct cell_1_5 cell_2_5 cell_3_5 cell_4_5 cell_5_5 cell_6_5 cell_7_5 cell_8_5 cell_9_5) true))
(assert
 (and (distinct cell_1_6 cell_2_6 cell_3_6 cell_4_6 cell_5_6 cell_6_6 cell_7_6 cell_8_6 cell_9_6) true))
(assert
 (and (distinct cell_1_7 cell_2_7 cell_3_7 cell_4_7 cell_5_7 cell_6_7 cell_7_7 cell_8_7 cell_9_7) true))
(assert
 (and (distinct cell_1_8 cell_2_8 cell_3_8 cell_4_8 cell_5_8 cell_6_8 cell_7_8 cell_8_8 cell_9_8) true))
(assert
 (and (distinct cell_1_9 cell_2_9 cell_3_9 cell_4_9 cell_5_9 cell_6_9 cell_7_9 cell_8_9 cell_9_9) true))
(assert
 (and (distinct cell_1_1 cell_1_2 cell_1_3 cell_2_1 cell_2_2 cell_2_3 cell_3_1 cell_3_2 cell_3_3) true))
(assert
 (and (distinct cell_1_4 cell_1_5 cell_1_6 cell_2_4 cell_2_5 cell_2_6 cell_3_4 cell_3_5 cell_3_6) true))
(assert
 (and (distinct cell_1_7 cell_1_8 cell_1_9 cell_2_7 cell_2_8 cell_2_9 cell_3_7 cell_3_8 cell_3_9) true))
(assert
 (and (distinct cell_4_1 cell_4_2 cell_4_3 cell_5_1 cell_5_2 cell_5_3 cell_6_1 cell_6_2 cell_6_3) true))
(assert
 (and (distinct cell_4_4 cell_4_5 cell_4_6 cell_5_4 cell_5_5 cell_5_6 cell_6_4 cell_6_5 cell_6_6) true))
(assert
 (and (distinct cell_4_7 cell_4_8 cell_4_9 cell_5_7 cell_5_8 cell_5_9 cell_6_7 cell_6_8 cell_6_9) true))
(assert
 (and (distinct cell_7_1 cell_7_2 cell_7_3 cell_8_1 cell_8_2 cell_8_3 cell_9_1 cell_9_2 cell_9_3) true))
(assert
 (and (distinct cell_7_4 cell_7_5 cell_7_6 cell_8_4 cell_8_5 cell_8_6 cell_9_4 cell_9_5 cell_9_6) true))
(assert
 (and (distinct cell_7_7 cell_7_8 cell_7_9 cell_8_7 cell_8_8 cell_8_9 cell_9_7 cell_9_8 cell_9_9) true))
(assert
 (let (($x4986 (and (distinct cell_5_9 cell_6_8 cell_7_7 cell_8_6) true)))
 (let (($x9993 (and (distinct cell_2_9 cell_3_8 cell_4_7 cell_5_6 cell_6_5 cell_7_4 cell_8_3 cell_9_2) true)))
 (let (($x1035 (and (distinct cell_1_8 cell_2_7 cell_3_6 cell_4_5 cell_5_4 cell_6_3 cell_7_2 cell_8_1) true)))
 (let (($x9489 (and (distinct cell_1_5 cell_2_4 cell_3_3 cell_4_2) true)))
 (let (($x7161 (and (distinct cell_5_1 cell_6_2 cell_7_3 cell_8_4) true)))
 (let (($x7773 (and (distinct cell_2_1 cell_3_2 cell_4_3 cell_5_4 cell_6_5 cell_7_6 cell_8_7 cell_9_8) true)))
 (let (($x512 (and (distinct cell_1_2 cell_2_3 cell_3_4 cell_4_5 cell_5_6 cell_6_7 cell_7_8 cell_8_9) true)))
 (let (($x8692 (and (distinct cell_1_5 cell_2_6 cell_3_7 cell_4_8) true)))
 (and $x8692 $x512 $x7773 $x7161 $x9489 $x1035 $x9993 $x4986))))))))))
(assert
 (= cell_8_7 1))
(check-sat)
